c description: Random 3-CNF over 16 variables and 68 clauses
c generator: CNFgen (0.9.2)
c copyright: (C) 2012-2022 Massimo Lauria <massimo.lauria@uniroma1.it>
c url: https://massimolauria.net/cnfgen
c command line: cnfgen --output CNF_4.28/16_bit_68_119.cnf randkcnf 3 16 68
c
p cnf 16 68
-2 -10 -16 0
3 12 14 0
-7 -10 -16 0
-11 -12 -16 0
-2 -3 -10 0
2 -6 -11 0
-7 -8 -16 0
-4 -6 13 0
-1 -2 13 0
4 11 13 0
-2 3 -14 0
5 9 -12 0
-3 -8 -10 0
-11 -13 -16 0
-3 -9 10 0
6 9 -13 0
-4 6 13 0
7 8 -13 0
9 -10 15 0
-5 6 -10 0
-7 -11 16 0
-3 7 -11 0
1 2 8 0
11 12 -14 0
8 -14 16 0
-4 -5 -15 0
-7 13 -16 0
7 -13 -16 0
-6 -14 -15 0
-1 -9 13 0
-4 -6 16 0
-7 10 -12 0
-5 13 -14 0
-4 7 14 0
9 -10 -12 0
3 -4 -14 0
-1 6 -14 0
-3 -10 14 0
-4 -14 -16 0
5 -9 -15 0
1 10 16 0
6 9 -12 0
8 -9 16 0
-5 -10 15 0
1 14 -16 0
1 3 -6 0
-7 -8 10 0
-3 12 -13 0
1 14 15 0
-5 12 -13 0
-1 -9 -15 0
3 7 16 0
11 13 14 0
6 -8 9 0
5 -12 -16 0
7 -9 14 0
5 6 -9 0
-7 8 13 0
10 -13 -14 0
-1 2 9 0
-3 -9 -12 0
-2 8 15 0
8 13 -15 0
1 -5 -15 0
-5 12 -16 0
2 -5 12 0
6 -8 13 0
2 -10 -15 0
